NAME = SAfile175,
TOURSIZE = 175,
LENGTH = 21408,
2,42,6,160,58,100,65,23,168,28,169,147,150,14,57,155,125,8,124,175,60,142,3,30,56,86,76,111,158,90,94,135,88,152,141,54,95,143,130,34,78,63,145,96,52,138,115,43,20,109,4,174,162,153,140,99,132,36,21,41,134,91,71,81,112,104,151,84,85,70,149,24,173,11,59,128,66,10,77,122,18,33,164,126,165,22,121,12,107,51,106,55,129,40,27,1,131,101,73,13,127,108,75,61,156,79,98,67,117,163,35,16,146,83,62,139,25,15,9,45,116,133,29,68,166,154,87,7,74,113,38,37,47,161,136,97,44,82,157,172,32,80,144,102,123,167,103,50,105,159,64,53,170,92,48,114,31,69,93,19,120,39,5,26,72,118,49,148,89,46,171,119,110,17,137